submitit INFO (2023-05-02 18:49:40,313) - Starting with JobEnvironment(job_id=27734, hostname=cpunode3, local_rank=4(5), node=0(1), global_rank=4(5))
submitit INFO (2023-05-02 18:49:40,313) - Loading pickle: /h/30/pashootan/Matrix-Mult-CP/src/../logs/4/2x2x3_11_May02_18:49:38/27734_submitted.pkl
 ! --------------------------------------------------- CP Optimizer 22.1.1.0 --
 ! Satisfiability problem - 176 variables, 144 constraints
 ! TimeLimit            = 7200
 ! Workers              = 8
 ! LogPeriod            = 10000000
 ! RandomSeed           = 223
 ! Initial process time : 0.02s (0.02s extraction + 0.00s propagation)
 !  . Log search space  : 279.0 (before), 279.0 (after)
 !  . Memory usage      : 821.3 kB (before), 821.3 kB (after)
 ! Using parallel search with 8 workers.
 ! ----------------------------------------------------------------------------
 !               Branches  Non-fixed    W       Branch decision
                   10000k          6    6   F    -1 != W9_4
                   10000k          4    5         1 != V7_0
                   10000k          7    4   F    -1  = U10_3
                   10000k          4    2         1 != W2_0
                   10000k          3    1         0  = W0_0
                   10000k         14    7         1  = W2_2
                   10000k          7    8         0 != W10_0
                   10000k         19    3         0 != U1_3
                   20000k          3    1        -1 != W8_1
                   20000k          6    6   F     0  = V6_5
                   20000k          4    5   F    -1 != V10_5
                   20000k          4    2   F    -1 != V10_2
                   20000k          4    4         0  = W2_0
                   20000k         22    7   F     1  = U1_1
                   20000k         19    8        -1  = V7_1
                   20000k         24    3         0  = W8_1
                   30000k          4    5         1  = U5_3
                   30000k          6    6         0  = W10_5
                   30000k          3    1   F    -1  = W8_3
                   30000k          4    4   F     1  = W9_2
 ! Time = 335.20s, Memory usage = 9.1 MB
 !               Branches  Non-fixed    W       Branch decision
                   30000k          4    2         1  = W6_5
                   30000k         15    7         0 != U9_2
                   30000k         17    8         1 != U8_1
                   30000k         19    3         0  = V5_1
                   40000k          4    5         0 != U1_3
                   40000k          4    6         0  = V5_4
                   40000k          3    4   F    -1  = W9_1
                   40000k          3    1   F    -1  = V4_1
                   40000k          4    2         1  = W4_5
                   40000k         16    7   F    -1  = V3_2
                   40000k          4    8         1 != V0_3
                   40000k         24    3         0  = V7_5
